152 177 2
18 113 30
54 53 127
86 85 139
73 172 125
87 101 55
43 34 106
5 93 66
56 95 164
99 120 136
170 150 32
153 158 10
151 88 40
142 16 189
197 94 100
139 138 103
183 135 172
114 166 132
74 168 182
85 92 107
135 26 116
108 91 155
151 191 162
82 154 42
39 153 17
17 39 30
47 41 63
66 76 69
46 123 72
4 111 116
62 178 91
44 192 36
111 148 27
123 183 59
179 127 123
135 87 121
41 154 149
50 16 132
44 16 170
80 0 133
97 69 181
169 124 149
180 129 12
187 75 17
170 40 13
195 118 32
110 56 42
78 87 48
96 125 92
19 156 5
152 177 2